 &CONTROL
                 calculation = 'scf' ,
                restart_mode = 'from_scratch' ,
                  pseudo_dir = './' ,
 /
 &SYSTEM
                       ibrav = 2,
                   celldm(1) = 10.8945922199,
                         nat = 4,
                        ntyp = 3,
                     ecutwfc = 40 ,
                     ecutrho = 160 ,
                 occupations = 'tetrahedra' ,
                     degauss = 0.02 ,
                    smearing = 'gaussian' ,
                       nspin = 2 ,
   starting_magnetization(1) = 1,
   starting_magnetization(2) = 1,
   starting_magnetization(3) = 1,
           tot_magnetization = -1 ,
            exxdiv_treatment = 'gygi-baldereschi' ,
 /
 &ELECTRONS
                    conv_thr = 1.0d-8 ,
                 mixing_beta = 0.7 ,
 /
ATOMIC_SPECIES
   Fe   55.84700  Fe.pbe-spn-kjpaw_psl.1.0.0.UPF
    V   50.94150  V.pbe-spnl-kjpaw_psl.1.0.0.UPF
   Al   26.98154  Al.pbe-nl-kjpaw_psl.1.0.0.UPF
ATOMIC_POSITIONS crystal
   Fe      0.250000000    0.250000000    0.250000000    
   Fe      0.750000000    0.750000000    0.750000000    
    V      0.500000000    0.500000000    0.500000000    
   Al      0.000000000    0.000000000    0.000000000    
K_POINTS automatic
  4 4 4   1 1 1
